8 83
44 66
17 160
39 150
13 58
16 126
72 33
67 35
11 171
18 67
41 28
33 92
4 192
5 18
39 46
10 61
11 23
4 182
83 38
96 3
22 9
47 22
31 184
20 144
9 196
98 37
19 119
1 1
16 108
7 91
79 53
8 120
5 13
28 122
40 31
16 20
15 123
18 66
11 174
78 9
39 131
50 78
32 156
36 86
34 11
21 15
39 63
100 22
11 31
12 54
